<?xml version = "1.0" standalone="yes"?>
<!-- This file has been generated by DOcplex version 2.23.222  -->
<CPLEXSolution version="1.0">
 <header
   problemName="CVRP"
   objectiveValue="5221.32"
  />
 <variables>
  <variable name="x_0_1" index="0" value="1.00000"/>
  <variable name="x_0_3" index="2" value="1.00000"/>
  <variable name="x_0_5" index="4" value="1.00000"/>
  <variable name="x_0_6" index="5" value="1.00000"/>
  <variable name="x_0_9" index="8" value="1.00000"/>
  <variable name="x_1_2" index="11" value="1.00000"/>
  <variable name="x_2_4" index="23" value="1.00000"/>
  <variable name="x_3_10" index="39" value="1.00000"/>
  <variable name="x_4_0" index="40" value="1.00000"/>
  <variable name="x_5_7" index="56" value="1.00000"/>
  <variable name="x_6_0" index="60" value="1.00000"/>
  <variable name="x_7_0" index="70" value="1.00000"/>
  <variable name="x_8_0" index="80" value="1.00000"/>
  <variable name="x_9_8" index="98" value="1.00000"/>
  <variable name="x_10_0" index="100" value="1.00000"/>
  <variable name="u_1" index="110" value="4.00000"/>
  <variable name="u_2" index="111" value="8.00000"/>
  <variable name="u_3" index="112" value="17.00000"/>
  <variable name="u_4" index="113" value="51.00000"/>
  <variable name="u_5" index="114" value="28.00000"/>
  <variable name="u_6" index="115" value="29.00000"/>
  <variable name="u_7" index="116" value="48.00000"/>
  <variable name="u_8" index="117" value="39.00000"/>
  <variable name="u_9" index="118" value="30.00000"/>
  <variable name="u_10" index="119" value="53.00000"/>
 </variables>
</CPLEXSolution>
